;; Mutation-Based Equivalence Benchmark
;; Source:     AutomatArk / instance09116.smt2
;; Mutations:  literal_char_inc, literal_char_dec, literal_char_dec
;; Status:     sat
;;
;; Original regex vs mutated regex
;; Equivalence check: unsat ⟺ L(R1) = L(R2)

(set-info :smt-lib-version 2.6)
(set-info :category "mutation")
(set-info :status sat)
(set-logic QF_S)

(declare-const x String)

;; R1: original
;; R2: mutated (literal_char_inc, literal_char_dec, literal_char_dec)
(assert
  (str.in_re x
    (re.union (re.inter (re.union (re.++ ((_ re.loop 1 1) (re.union (re.++ (str.to_re "H") (re.union (str.to_re "P") (str.to_re "T") (str.to_re "U") (str.to_re "Y") (str.to_re "Z"))) (re.++ (str.to_re "N") (re.union (str.to_re "A") (str.to_re "B") (str.to_re "C") (str.to_re "D") (str.to_re "F") (str.to_re "G") (str.to_re "H") (str.to_re "J") (str.to_re "K") (str.to_re "L") (str.to_re "M") (str.to_re "N") (str.to_re "O") (str.to_re "R") (str.to_re "S") (str.to_re "T") (str.to_re "U") (str.to_re "W") (str.to_re "X") (str.to_re "Y") (str.to_re "Z"))) (str.to_re "OV") (re.++ (str.to_re "S") (re.union (str.to_re "C") (str.to_re "D") (str.to_re "E") (str.to_re "G") (str.to_re "H") (str.to_re "J") (str.to_re "K") (str.to_re "M") (str.to_re "N") (str.to_re "O") (str.to_re "P") (str.to_re "R") (str.to_re "S") (str.to_re "T") (str.to_re "U") (str.to_re "W") (str.to_re "X") (str.to_re "Y") (str.to_re "Z"))) (re.++ (str.to_re "T") (re.union (str.to_re "A") (str.to_re "F") (str.to_re "G") (str.to_re "L") (str.to_re "M") (str.to_re "Q") (str.to_re "R") (str.to_re "V"))))) ((_ re.loop 4 4) (re.range "0" "9")) (re.opt (re.union (str.to_re "NE") (str.to_re "NW") (str.to_re "SE") (str.to_re "SW")))) (re.++ (str.to_re "\u{a}") ((_ re.loop 1 1) (re.union (re.++ (str.to_re "H") (re.union (str.to_re "P") (str.to_re "T") (str.to_re "U") (str.to_re "Y") (str.to_re "Z"))) (re.++ (str.to_re "N") (re.union (str.to_re "A") (str.to_re "B") (str.to_re "C") (str.to_re "D") (str.to_re "F") (str.to_re "G") (str.to_re "H") (str.to_re "J") (str.to_re "K") (str.to_re "L") (str.to_re "M") (str.to_re "N") (str.to_re "O") (str.to_re "R") (str.to_re "S") (str.to_re "T") (str.to_re "U") (str.to_re "W") (str.to_re "X") (str.to_re "Y") (str.to_re "Z"))) (str.to_re "OV") (re.++ (str.to_re "S") (re.union (str.to_re "C") (str.to_re "D") (str.to_re "E") (str.to_re "G") (str.to_re "H") (str.to_re "J") (str.to_re "K") (str.to_re "M") (str.to_re "N") (str.to_re "O") (str.to_re "P") (str.to_re "R") (str.to_re "S") (str.to_re "T") (str.to_re "U") (str.to_re "W") (str.to_re "X") (str.to_re "Y") (str.to_re "Z"))) (re.++ (str.to_re "T") (re.union (str.to_re "A") (str.to_re "F") (str.to_re "G") (str.to_re "L") (str.to_re "M") (str.to_re "Q") (str.to_re "R") (str.to_re "V"))))) (re.union ((_ re.loop 4 4) (re.range "0" "9")) ((_ re.loop 6 6) (re.range "0" "9")) ((_ re.loop 8 8) (re.range "0" "9")) ((_ re.loop 10 10) (re.range "0" "9"))))) (re.comp (re.union (re.++ ((_ re.loop 1 1) (re.union (re.++ (str.to_re "H") (re.union (str.to_re "P") (str.to_re "T") (str.to_re "U") (str.to_re "Y") (str.to_re "Z"))) (re.++ (str.to_re "N") (re.union (str.to_re "A") (str.to_re "B") (str.to_re "C") (str.to_re "D") (str.to_re "F") (str.to_re "G") (str.to_re "H") (str.to_re "J") (str.to_re "K") (str.to_re "L") (str.to_re "M") (str.to_re "N") (str.to_re "O") (str.to_re "R") (str.to_re "S") (str.to_re "T") (str.to_re "U") (str.to_re "W") (str.to_re "X") (str.to_re "Y") (str.to_re "Z"))) (str.to_re "OV") (re.++ (str.to_re "R") (re.union (str.to_re "C") (str.to_re "D") (str.to_re "E") (str.to_re "G") (str.to_re "H") (str.to_re "J") (str.to_re "K") (str.to_re "M") (str.to_re "N") (str.to_re "O") (str.to_re "P") (str.to_re "R") (str.to_re "S") (str.to_re "T") (str.to_re "U") (str.to_re "W") (str.to_re "X") (str.to_re "Y") (str.to_re "Z"))) (re.++ (str.to_re "T") (re.union (str.to_re "A") (str.to_re "F") (str.to_re "G") (str.to_re "L") (str.to_re "M") (str.to_re "Q") (str.to_re "R") (str.to_re "V"))))) ((_ re.loop 4 4) (re.range "0" "9")) (re.opt (re.union (str.to_re "NE") (str.to_re "NW") (str.to_re "SE") (str.to_re "SW")))) (re.++ (str.to_re "\u{a}") ((_ re.loop 1 1) (re.union (re.++ (str.to_re "G") (re.union (str.to_re "P") (str.to_re "T") (str.to_re "U") (str.to_re "Y") (str.to_re "Z"))) (re.++ (str.to_re "N") (re.union (str.to_re "A") (str.to_re "B") (str.to_re "C") (str.to_re "D") (str.to_re "F") (str.to_re "G") (str.to_re "H") (str.to_re "J") (str.to_re "K") (str.to_re "L") (str.to_re "M") (str.to_re "N") (str.to_re "O") (str.to_re "R") (str.to_re "S") (str.to_re "T") (str.to_re "U") (str.to_re "W") (str.to_re "X") (str.to_re "Y") (str.to_re "Z"))) (str.to_re "OV") (re.++ (str.to_re "S") (re.union (str.to_re "C") (str.to_re "D") (str.to_re "E") (str.to_re "G") (str.to_re "H") (str.to_re "J") (str.to_re "K") (str.to_re "M") (str.to_re "N") (str.to_re "O") (str.to_re "P") (str.to_re "R") (str.to_re "S") (str.to_re "T") (str.to_re "U") (str.to_re "W") (str.to_re "X") (str.to_re "Y") (str.to_re "Z"))) (re.++ (str.to_re "T") (re.union (str.to_re "A") (str.to_re "F") (str.to_re "G") (str.to_re "M") (str.to_re "M") (str.to_re "Q") (str.to_re "R") (str.to_re "V"))))) (re.union ((_ re.loop 4 4) (re.range "0" "9")) ((_ re.loop 6 6) (re.range "0" "9")) ((_ re.loop 8 8) (re.range "0" "9")) ((_ re.loop 10 10) (re.range "0" "9"))))))) (re.inter (re.comp (re.union (re.++ ((_ re.loop 1 1) (re.union (re.++ (str.to_re "H") (re.union (str.to_re "P") (str.to_re "T") (str.to_re "U") (str.to_re "Y") (str.to_re "Z"))) (re.++ (str.to_re "N") (re.union (str.to_re "A") (str.to_re "B") (str.to_re "C") (str.to_re "D") (str.to_re "F") (str.to_re "G") (str.to_re "H") (str.to_re "J") (str.to_re "K") (str.to_re "L") (str.to_re "M") (str.to_re "N") (str.to_re "O") (str.to_re "R") (str.to_re "S") (str.to_re "T") (str.to_re "U") (str.to_re "W") (str.to_re "X") (str.to_re "Y") (str.to_re "Z"))) (str.to_re "OV") (re.++ (str.to_re "S") (re.union (str.to_re "C") (str.to_re "D") (str.to_re "E") (str.to_re "G") (str.to_re "H") (str.to_re "J") (str.to_re "K") (str.to_re "M") (str.to_re "N") (str.to_re "O") (str.to_re "P") (str.to_re "R") (str.to_re "S") (str.to_re "T") (str.to_re "U") (str.to_re "W") (str.to_re "X") (str.to_re "Y") (str.to_re "Z"))) (re.++ (str.to_re "T") (re.union (str.to_re "A") (str.to_re "F") (str.to_re "G") (str.to_re "L") (str.to_re "M") (str.to_re "Q") (str.to_re "R") (str.to_re "V"))))) ((_ re.loop 4 4) (re.range "0" "9")) (re.opt (re.union (str.to_re "NE") (str.to_re "NW") (str.to_re "SE") (str.to_re "SW")))) (re.++ (str.to_re "\u{a}") ((_ re.loop 1 1) (re.union (re.++ (str.to_re "H") (re.union (str.to_re "P") (str.to_re "T") (str.to_re "U") (str.to_re "Y") (str.to_re "Z"))) (re.++ (str.to_re "N") (re.union (str.to_re "A") (str.to_re "B") (str.to_re "C") (str.to_re "D") (str.to_re "F") (str.to_re "G") (str.to_re "H") (str.to_re "J") (str.to_re "K") (str.to_re "L") (str.to_re "M") (str.to_re "N") (str.to_re "O") (str.to_re "R") (str.to_re "S") (str.to_re "T") (str.to_re "U") (str.to_re "W") (str.to_re "X") (str.to_re "Y") (str.to_re "Z"))) (str.to_re "OV") (re.++ (str.to_re "S") (re.union (str.to_re "C") (str.to_re "D") (str.to_re "E") (str.to_re "G") (str.to_re "H") (str.to_re "J") (str.to_re "K") (str.to_re "M") (str.to_re "N") (str.to_re "O") (str.to_re "P") (str.to_re "R") (str.to_re "S") (str.to_re "T") (str.to_re "U") (str.to_re "W") (str.to_re "X") (str.to_re "Y") (str.to_re "Z"))) (re.++ (str.to_re "T") (re.union (str.to_re "A") (str.to_re "F") (str.to_re "G") (str.to_re "L") (str.to_re "M") (str.to_re "Q") (str.to_re "R") (str.to_re "V"))))) (re.union ((_ re.loop 4 4) (re.range "0" "9")) ((_ re.loop 6 6) (re.range "0" "9")) ((_ re.loop 8 8) (re.range "0" "9")) ((_ re.loop 10 10) (re.range "0" "9")))))) (re.union (re.++ ((_ re.loop 1 1) (re.union (re.++ (str.to_re "H") (re.union (str.to_re "P") (str.to_re "T") (str.to_re "U") (str.to_re "Y") (str.to_re "Z"))) (re.++ (str.to_re "N") (re.union (str.to_re "A") (str.to_re "B") (str.to_re "C") (str.to_re "D") (str.to_re "F") (str.to_re "G") (str.to_re "H") (str.to_re "J") (str.to_re "K") (str.to_re "L") (str.to_re "M") (str.to_re "N") (str.to_re "O") (str.to_re "R") (str.to_re "S") (str.to_re "T") (str.to_re "U") (str.to_re "W") (str.to_re "X") (str.to_re "Y") (str.to_re "Z"))) (str.to_re "OV") (re.++ (str.to_re "R") (re.union (str.to_re "C") (str.to_re "D") (str.to_re "E") (str.to_re "G") (str.to_re "H") (str.to_re "J") (str.to_re "K") (str.to_re "M") (str.to_re "N") (str.to_re "O") (str.to_re "P") (str.to_re "R") (str.to_re "S") (str.to_re "T") (str.to_re "U") (str.to_re "W") (str.to_re "X") (str.to_re "Y") (str.to_re "Z"))) (re.++ (str.to_re "T") (re.union (str.to_re "A") (str.to_re "F") (str.to_re "G") (str.to_re "L") (str.to_re "M") (str.to_re "Q") (str.to_re "R") (str.to_re "V"))))) ((_ re.loop 4 4) (re.range "0" "9")) (re.opt (re.union (str.to_re "NE") (str.to_re "NW") (str.to_re "SE") (str.to_re "SW")))) (re.++ (str.to_re "\u{a}") ((_ re.loop 1 1) (re.union (re.++ (str.to_re "G") (re.union (str.to_re "P") (str.to_re "T") (str.to_re "U") (str.to_re "Y") (str.to_re "Z"))) (re.++ (str.to_re "N") (re.union (str.to_re "A") (str.to_re "B") (str.to_re "C") (str.to_re "D") (str.to_re "F") (str.to_re "G") (str.to_re "H") (str.to_re "J") (str.to_re "K") (str.to_re "L") (str.to_re "M") (str.to_re "N") (str.to_re "O") (str.to_re "R") (str.to_re "S") (str.to_re "T") (str.to_re "U") (str.to_re "W") (str.to_re "X") (str.to_re "Y") (str.to_re "Z"))) (str.to_re "OV") (re.++ (str.to_re "S") (re.union (str.to_re "C") (str.to_re "D") (str.to_re "E") (str.to_re "G") (str.to_re "H") (str.to_re "J") (str.to_re "K") (str.to_re "M") (str.to_re "N") (str.to_re "O") (str.to_re "P") (str.to_re "R") (str.to_re "S") (str.to_re "T") (str.to_re "U") (str.to_re "W") (str.to_re "X") (str.to_re "Y") (str.to_re "Z"))) (re.++ (str.to_re "T") (re.union (str.to_re "A") (str.to_re "F") (str.to_re "G") (str.to_re "M") (str.to_re "M") (str.to_re "Q") (str.to_re "R") (str.to_re "V"))))) (re.union ((_ re.loop 4 4) (re.range "0" "9")) ((_ re.loop 6 6) (re.range "0" "9")) ((_ re.loop 8 8) (re.range "0" "9")) ((_ re.loop 10 10) (re.range "0" "9")))))))))

(check-sat)
(exit)
